WARNING: for repeatability, setting FPU to use double precision
 -----------------------------------------------------------------------------------------------------------------------
|                                 manysat2.0    4 thread(s) on 8 core(s)                                                |
 -----------------------------------------------------------------------------------------------------------------------
 ===============================================[ Problem Statistics ]==================================================
|                                                                                                                       |
|  Number of cores:                 4                                                                                   |
|  Number of variables:       1258461                                                                                   |
|  Number of clauses:         2181328                                                                                   |
|  Parse time:                   1.40 s                                                                                 |
|                                                                                                                       |
 ==============================================[ Search Statistics ]====================================================
|   Thread  | Conflicts |          ORIGINAL         |          LEARNT          |  exported  / imported      |  Progress |
|    (id)   |           |    Vars  Clauses Literals |    Limit  Clauses Lit/Cl |  (clauses by restart)      |           |
 =======================================================================================================================
|         0 |       100 |  699136  1621995  3971093 |   594731       98      4 |       61270  -           0 | 44.445 %  |
|         2 |       100 |  699136  1621995  3971093 |   799820      268      4 |        5998  -         168 | 44.445 %  |
|         2 |       250 |  699136  1621991  3971085 |   879802      461      4 |        5998  -         211 | 44.445 %  |
|         2 |       475 |  699136  1621991  3971085 |   967782      687      4 |        5998  -         212 | 44.445 %  |
|         0 |       250 |  699135  1621989  3971081 |   654204      897      4 |       69496  -         650 | 44.445 %  |
|         3 |       100 |  699136  1621995  3971093 |   799820     1133      4 |        5998  -        1032 | 44.445 %  |
|         1 |       100 |  699135  1621989  3971081 |   799820     1116      4 |        5999  -        1018 | 44.445 %  |
|         0 |       475 |  699135  1621989  3971081 |   719625     1277      4 |       69496  -         805 | 44.445 %  |
|         1 |       250 |  699135  1621989  3971081 |   879802     1663      4 |        5999  -        1415 | 44.445 %  |
|         3 |       250 |  699135  1621989  3971081 |   879802     1852      4 |        5998  -        1602 | 44.445 %  |
|         2 |       812 |  699135  1621989  3971081 |  1064560     1939      4 |        5999  -        1127 | 44.445 %  |
|         2 |      1318 |  699135  1621989  3971081 |  1171016     2771      3 |        5999  -        1453 | 44.445 %  |
|         1 |       475 |  699135  1621989  3971081 |   967782     3229      3 |        5999  -        2756 | 44.445 %  |
|         3 |       475 |  699135  1621989  3971081 |   967782     3521      3 |        5998  -        3046 | 44.445 %  |
|         0 |       812 |  699135  1621989  3971081 |   791587     3894      3 |       69496  -        3085 | 44.445 %  |
|         2 |      2077 |  699135  1621989  3971081 |  1288118     4323      3 |        5999  -        2246 | 44.445 %  |
|         1 |       812 |  699135  1621989  3971081 |  1064560     4427      3 |        5999  -        3617 | 44.445 %  |
|         3 |       812 |  699135  1621989  3971081 |  1064560     4836      3 |        5998  -        4024 | 44.445 %  |
|         3 |      1318 |  699135  1621989  3971081 |  1171016     5890      3 |        5998  -        4572 | 44.445 %  |
|         1 |      1318 |  699135  1621989  3971081 |  1171016     6925      3 |        5999  -        5609 | 44.445 %  |
|         3 |      2077 |  699135  1621989  3971081 |  1288118     7143      3 |        5998  -        5066 | 44.445 %  |
|         0 |      1318 |  699135  1621989  3971081 |   870746     7747      3 |       69496  -        6432 | 44.445 %  |
|         2 |      3216 |  699135  1621989  3971081 |  1416930     9777      3 |        5999  -        6561 | 44.445 %  |
|         0 |      2077 |  699135  1621989  3971081 |   957821    10017      3 |       69496  -        7943 | 44.445 %  |
|         1 |      2077 |  699135  1621989  3971081 |  1288118    10451      3 |        5999  -        8376 | 44.445 %  |
|         0 |      3216 |  699135  1621989  3971081 |  1053603    12832      3 |       69496  -        9619 | 44.445 %  |
|         3 |      3216 |  699135  1621989  3971081 |  1416930    13821      3 |        5998  -       10605 | 44.445 %  |
|         1 |      3216 |  699135  1621989  3971081 |  1416930    14546      3 |        5999  -       11303 | 44.445 %  |
|         2 |      4924 |  699135  1621989  3971081 |  1558623    16613      3 |        5999  -       11688 | 44.445 %  |
|         1 |      4924 |  699135  1621989  3971081 |  1558623    18603      3 |        5999  -       13652 | 44.445 %  |
|         0 |      4924 |  699135  1621989  3971081 |  1158963    19658      3 |       69496  -       14737 | 44.445 %  |
|         3 |      4924 |  699134  1621988  3971078 |  1558623    24272      3 |        6000  -       19366 | 44.445 %  |
|         2 |      7486 |  699134  1621988  3971078 |  1714485    27465      3 |        5999  -       19994 | 44.445 %  |
|         1 |      7486 |  699134  1621988  3971078 |  1714485    27784      3 |        6004  -       20289 | 44.445 %  |
|         0 |      7486 |  699134  1621988  3971078 |  1274859    27819      3 |       69501  -       20354 | 44.445 %  |
|         1 |     11330 |  699132  1621985  3971071 |  1885934    38223      3 |        6005  -       26900 | 44.445 %  |
|         3 |      7486 |  699132  1621985  3971071 |  1714485    39349      3 |        6000  -       31899 | 44.445 %  |
|         2 |     11330 |  699132  1621985  3971071 |  1885934    41114      3 |        6003  -       29815 | 44.445 %  |
|         0 |     11330 |  699132  1621985  3971071 |  1402345    45316      3 |       69502  -       34023 | 44.445 %  |
|         3 |     11330 |  699132  1621985  3971071 |  1885934    46548      3 |        6000  -       35254 | 44.445 %  |
|         3 |     17096 |  699132  1621985  3971071 |  2074527    60955      3 |        6000  -       43895 | 44.445 %  |
|         2 |     17096 |  699132  1621985  3971071 |  2074527    62370      3 |        6003  -       45304 | 44.445 %  |
|         1 |     17096 |  699132  1621985  3971071 |  2074527    74324      4 |        6005  -       57235 | 44.445 %  |
|         0 |     17096 |  699132  1621985  3971071 |  1542580    79422      4 |       69502  -       62363 | 44.445 %  |
|         3 |     25745 |  699132  1621985  3971071 |  2281980    92917      4 |        6000  -       67207 | 44.445 %  |
|         2 |     25745 |  699132  1621985  3971071 |  2281980    94612      4 |        6003  -       68896 | 44.445 %  |
|         1 |     25745 |  699132  1621985  3971071 |  2281980   106407      4 |        6005  -       80666 | 44.445 %  |
|         0 |     25745 |  699132  1621985  3971071 |  1696838   121503      4 |       69502  -       95793 | 44.445 %  |
|         3 |     38719 |  699132  1621985  3971071 |  2510178   139354      4 |        6000  -      100670 | 44.445 %  |
|         2 |     38719 |  699132  1621985  3971071 |  2510178   143576      4 |        6003  -      104881 | 44.445 %  |
|         1 |     38719 |  699132  1621985  3971071 |  2510178   156031      4 |        6005  -      117311 | 44.445 %  |
|         0 |     38719 |  699132  1621985  3971071 |  1866522   190531      4 |       69502  -      151844 | 44.445 %  |
|         2 |     58180 |  699132  1621985  3971071 |  2761196   207792      4 |        6003  -      149631 | 44.445 %  |
|         3 |     58180 |  699132  1621985  3971071 |  2761196   215804      4 |        6000  -      157657 | 44.445 %  |
|         1 |     58180 |  699132  1621985  3971071 |  2761196   239314      4 |        6005  -      181131 | 44.445 %  |
|         0 |     58180 |  699131  1621983  3971067 |  2053174   275852      4 |       69507  -      217702 | 44.446 %  |
|         3 |     87372 |  699131  1621983  3971067 |  3037316   290513      4 |        6005  -      203173 | 44.446 %  |
|         1 |     87372 |  699128  1621978  3971056 |  3037316   333026      4 |        6011  -      245659 | 44.446 %  |
|         2 |     87372 |  699128  1621979  3971059 |  3037316   340360      4 |        6012  -      253007 | 44.446 %  |
|         0 |     87372 |  699113  1621962  3971010 |  2258491   412890      4 |       69555  -      325920 | 44.447 %  |
|         3 |    131161 |  699099  1621944  3970964 |  3341047   459846      5 |        6070  -      329193 | 44.448 %  |
|         0 |    131161 |  699074  1621914  3970886 |  2484341   496850      5 |       69633  -      366422 | 44.450 %  |
|         1 |    131161 |  699059  1621893  3970833 |  3341047   523462      5 |        6223  -      393225 | 44.451 %  |
|         2 |    131161 |  699050  1621884  3970808 |  3341047   531356      5 |        6233  -      401160 | 44.452 %  |
|         2 |    196845 |  698984  1621803  3970595 |  3675152   715856      5 |        6506  -      520610 | 44.457 %  |
|         0 |    196845 |  698950  1621767  3970497 |  2732775   725929      5 |       70013  -      531143 | 44.460 %  |
|         1 |    196845 |  698895  1621692  3970306 |  3675152   792781      5 |        6802  -      598544 | 44.464 %  |
|         3 |    196845 |  698808  1621605  3970061 |  3675152   841952      5 |        6903  -      649781 | 44.471 %  |
|         2 |    295371 |  698775  1621559  3969939 |  4042667   881617      5 |        7018  -      591863 | 44.474 %  |
|         1 |    295371 |  697819  1620479  3966939 |  4042667  1145365      5 |        9888  -      891339 | 44.550 %  |
|         0 |    295371 |  696562  1619169  3963115 |  3006052  1146552      5 |       76853  -      952146 | 44.650 %  |
|         2 |    443160 |  696454  1619047  3962777 |  4446934  1180823      5 |       14129  -      844892 | 44.658 %  |
|         3 |    295371 |  696377  1618967  3962555 |  4042667  1182801      5 |       14105  -      996730 | 44.664 %  |
 =======================================================================================================================
 -----------------------------------------------------------------------------------------------------------------------
| ManySAT 2.2 - all threads statistics           DETERMINISTIC MODE ? N              initial limit export clauses :  10 |
|-----------------------------------------------------------------------------------------------------------------------|
|  Thread  | winner  |   #restarts   |   decisions   |  #conflicts   |   % shared cls  |  #extra units | #extra clauses |         
|----------|---------|---------------|---------------|---------------|-----------------|---------------|----------------|
|        0 |       x |           888 |     884439439 |        365547 |           323 % |         82447 |        1098508 |
|        1 |         |           828 |     785010510 |        348759 |           322 % |         19347 |        1105767 |
|        2 |         |          1023 |     781362482 |        488730 |           204 % |         19265 |         979697 |
|        3 |         |           806 |     810996434 |        342571 |           331 % |         19263 |        1116377 |
|----------------------------------------------------|---------------|-----------------|---------------|----------------|
|                                                    |       1545607 |           287 % |        140322 |        4300349 |
 -----------------------------------------------------------------------------------------------------------------------
 DETERMINISTIC_MODE? : NO 
 CONTROL POLICY?	 : STATIC (fixed Limit Export Clauses)  
 LIMIT EXPORT CLAUSES (PAIRWISE) : [identity] x 10

  ----------------------------------------         
   winner:  more statistics           
  ----------------------------------------         
  restarts              : 888
  conflicts             : 365547         (79 /sec)
  decisions             : 884439439      (0.00 % random) (191241 /sec)
  propagations          : 5543785015     (1198721 /sec)
  conflict literals     : 2094556        (8.45 % deleted)
  Memory used           : 1501.00 MB
  CPU time              : 4624.75 s

UNSATISFIABLE
